0	5
0	2
0	4
0	13
0	7
0	10
0	1
0	14
0	9
0	3
0	15
0	8
0	6
0	11
0	12
0	0
1	9
1	7
1	3
1	2
1	15
2	3
2	12
2	8
2	2
2	14
2	15
2	5
3	1
3	15
3	13
3	8
3	6
3	0
3	5
3	11
3	10
3	3
3	7
3	12
3	4
3	9
3	14
3	2
4	9
4	10
4	11
4	13